PARAMETER_FILE = even/LKH_uncomplete_graph/x5/de/par/random137.par
PROBLEM_FILE = even/LKH_uncomplete_graph/x5/de/mat/random137.tsp
Successes/Runs = 0/10
Cost.min = 912, Cost.avg = 912.00, Cost.max = 912
Gap.min = 0.0000%, Gap.avg = 0.0000%, Gap.max = 0.0000%
Trials.min = 1000, Trials.avg = 1000.0, Trials.max = 1000
Time.min = 1.46 sec., Time.avg = 1.84 sec., Time.max = 2.13 sec.
Time.total = 18.52 sec.
请按任意键继续. . . 
